NAME          BLANK   
ROWS
 N  OBJROW
 L  R0000000
COLUMNS
    C0000000  OBJROW     -11.          R0000000  436.        
    C0000001  OBJROW     -857.         R0000000  375.        
    C0000002  OBJROW     -389.         R0000000  625.        
    C0000003  OBJROW     -118.         R0000000  553.        
    C0000004  OBJROW     -621.         R0000000  707.        
    C0000005  OBJROW     -276.         R0000000  626.        
    C0000006  OBJROW     -227.         R0000000  618.        
    C0000007  OBJROW     -139.         R0000000  856.        
    C0000008  OBJROW     -610.         R0000000  831.        
    C0000009  OBJROW     -278.         R0000000  196.        
RHS
    RHS       R0000000  14228.      
BOUNDS
 BV BOUND     C0000000  1.          
 BV BOUND     C0000001  1.          
 BV BOUND     C0000002  1.          
 BV BOUND     C0000003  1.          
 BV BOUND     C0000004  1.          
 BV BOUND     C0000005  1.          
 BV BOUND     C0000006  1.          
 BV BOUND     C0000007  1.          
 BV BOUND     C0000008  1.          
 BV BOUND     C0000009  1.          
ENDATA
